CapLotSizing_PM/src/Instancias/TCHSHT/6i6p2m/NBA02.OUT
 CG ITER, OVMR, OVMRUB =           1   19286.3281250   16118.5009766
 CG ITER, OVMR, OVMRUB =           2   16118.5019531   16118.5009766
 CG ITER, OVMR, OVMRUB =           3   16044.9775391   16044.9755859
 CG ITER, OVMR, OVMRUB =           4   16044.9755859   16044.9755859
 CG ITER, OVMR, OVMRUB =           5   14830.2792969   16044.9755859
 CG ITER, OVMR, OVMRUB =           6   14706.8388672   16044.9755859
 CG ITER, OVMR, OVMRUB =           7   14633.2998047   15399.6650391
 CG ITER, OVMR, OVMRUB =           8   14616.8916016   15399.6650391
 CG ITER, OVMR, OVMRUB =           9   14604.8007812   15399.6650391
 CG ITER, OVMR, OVMRUB =          10   14587.8574219   15399.6650391
 CG ITER, OVMR, OVMRUB =          11   14582.9873047   15399.6650391
 CG ITER, OVMR, OVMRUB =          12   14580.2890625   15399.6650391
 CG ITER, OVMR, OVMRUB =          13   14580.2773438   15399.6650391
 CG ITER, OVMR, OVMRUB =          14   14580.2773438   15399.6650391
OVLB =   14580.2773438 OVLUB =   15399.6650391 TIME =       0.3300000
